data;

set GAS := A B C D E; # Gasoline types

set TANK := 1 2 3 4 5 6 7 8; # Tanks available

param tankCost: 1	2	3	4	5	6	7	8 := # Cost per 1000 liters per tank
A	1	2	2	1	4	4	5	3
B	2	3	3	3	1	4	5	2
C	3	4	1	2	1	4	5	1
D	1	1	2	2	3	4	5	2
E	1	1	1	1	1	1	5	5;

param tankCap := # Capacity of each tank
1	25000
2	25000
3	30000
4	60000
5	80000
6	85000
7	100000
8	50000;

param gasCap := # Necessary supply of each gas type
A	75000
B	50000
C	25000
D	80000
E	20000;